0
7
0
23
13
18
17
0
12
16
17
13
16
17
21
13
13
0
11
19
0
12
0
29
0
0
14
23
43
34
13
10
12
9
0
0
8
22
0
14
18
0
0
33
0
13
14
16
0
19
0
17
10
16
0
0
11
9
8
0
20
0
0
27
0
0
0
0
15
13
13
16
11
0
10
0
0
0
0
7
0
0
0
31
19
7
20
11
17
11
14
26
10
0
0
10
0
11
0
0
